c WARNING: for repeatability, setting FPU to use double precision
d VARIABLES            60126        
d CONSTRAINTS          256055       
c ============================[ Problem Statistics ]=============================
c |                                                                             |
c |  Number of variables:         60126                                         |
c |  Number of clauses:          256055                                         |
c |  Parse time:                   0.04 s                                       |
c |                                                                             |
c ============================[ Search Statistics ]==============================
c | Conflicts |          ORIGINAL         |          LEARNT          | Progress |
c |           |    Vars  Clauses Literals |    Limit  Clauses Lit/Cl |          |
c ===============================================================================
c |       100 |   47922   221371   538928 |    81169      100     38 | 20.297 % |
c |       250 |   47922   221371   538928 |    89286      250     41 | 20.297 % |
c |       475 |   47922   221371   538928 |    98214      475     46 | 20.297 % |
c |       812 |   47922   221371   538928 |   108036      812     73 | 20.297 % |
c |      1318 |   47922   221371   538928 |   118840     1318     94 | 20.297 % |
c |      2077 |   47922   221371   538928 |   130724     2077     96 | 20.297 % |
c |      3216 |   47922   221371   538928 |   143796     3216    127 | 20.297 % |
c |      4924 |   47922   221371   538928 |   158176     4924    117 | 20.297 % |
c |      7486 |   47922   221371   538928 |   173993     7486    124 | 20.297 % |
c |     11330 |   47921   221360   538902 |   191393    11329    138 | 20.299 % |
c |     17096 |   47921   221360   538902 |   210532    17095    140 | 20.299 % |
c |     25745 |   47921   221360   538902 |   231585    25744    140 | 20.299 % |
c |     38719 |   47921   221360   538902 |   254744    38718    137 | 20.299 % |
c |     58180 |   47921   221360   538902 |   280218    58179    139 | 20.299 % |
c |     87372 |   47913   221321   538808 |   308240    87370    130 | 20.312 % |
c |    131161 |   47913   221321   538808 |   339064   131159    130 | 20.312 % |
c |    196845 |   47913   221321   538808 |   372971   196843    133 | 20.312 % |
c |    295371 |   47913   221321   538808 |   410268   295369    138 | 20.312 % |
c |    443160 |   47913   221321   538808 |   451294    44360    160 | 20.312 % |
c |    664843 |   47913   221321   538808 |   496424   266043    147 | 20.312 % |
c |    997368 |   47912   221310   538782 |   546066   117443    112 | 20.314 % |
c ===============================================================================
c restarts              : 2362
c conflicts             : 1244139        (1835 /sec)
c decisions             : 2817656        (0.00 % random) (4155 /sec)
c propagations          : 1497721044     (2208434 /sec)
c conflict literals     : 165028367      (44.32 % deleted)
d RESTARTS             2362
d FAILURES             1244139      
d NODES                2817656      
d BACKTRACKS           2817656      
d PROPAGATIONS         1497721044   
d NOGOODSIZE           132.64 
d MEMORY               419.00 
d TIME                 678.182 

s UNSATISFIABLE
